
Gurobi 6.0.4 (win64) logging started 06/18/15 17:42:01

Read LP format model from file E:\Eigene Dateien\Downloads\Michi shit\VRPTWMS2\instances\mip\fuel\N6-C_DV100-C_SV25_F5_3_No_1.lp
Reading time = 0.00 seconds
(null): 253 rows, 128 columns, 957 nonzeros
Optimize a model with 253 rows, 128 columns and 957 nonzeros
Model has 216 quadratic constraints
Coefficient statistics:
  Matrix range    [1e+00, 1e+06]
  Objective range [6e+04, 1e+07]
  Bounds range    [1e+00, 1e+06]
  RHS range       [1e+00, 1e+06]
Presolve removed 41 rows and 28 columns
Presolve time: 0.01s
Presolved: 471 rows, 229 columns, 2340 nonzeros
Variable types: 129 continuous, 100 integer (76 binary)
Found heuristic solution: objective 6.271380e+07
Found heuristic solution: objective 4.229520e+07

Root relaxation: objective 2.197134e+07, 52 iterations, 0.00 seconds

    Nodes    |    Current Node    |     Objective Bounds      |     Work
 Expl Unexpl |  Obj  Depth IntInf | Incumbent    BestBd   Gap | It/Node Time

     0     0 2.1971e+07    0   28 4.2295e+07 2.1971e+07  48.1%     -    0s
     0     0 2.4513e+07    0   31 4.2295e+07 2.4513e+07  42.0%     -    0s
     0     0 2.6418e+07    0   26 4.2295e+07 2.6418e+07  37.5%     -    0s
H    0     0                    4.229120e+07 2.6418e+07  37.5%     -    0s
     0     0 2.7978e+07    0   31 4.2291e+07 2.7978e+07  33.8%     -    0s
     0     0 2.8592e+07    0   21 4.2291e+07 2.8592e+07  32.4%     -    0s
     0     0 2.8608e+07    0   26 4.2291e+07 2.8608e+07  32.4%     -    0s
     0     0 2.8624e+07    0   26 4.2291e+07 2.8624e+07  32.3%     -    0s
     0     0 2.8624e+07    0   25 4.2291e+07 2.8624e+07  32.3%     -    0s
     0     2 2.8624e+07    0   24 4.2291e+07 2.8624e+07  32.3%     -    0s

Cutting planes:
  Gomory: 2
  Cover: 4
  Implied bound: 1
  Clique: 8
  MIR: 2
  GUB cover: 5

Explored 33 nodes (326 simplex iterations) in 0.06 seconds
Thread count was 4 (of 4 available processors)

Optimal solution found (tolerance 1.00e-04)
Best objective 4.229120000000e+07, best bound 4.229120000000e+07, gap 0.0%
k_c1	50000.0
k_c2	270000.0
k_c3	170000.0
k_c4	220000.0
k_c5	280000.0
k_c6	40000.0
k_dN	-0.0
o_1	0.0
o_2	0.0
o_3	0.0
o_4	0.0
o_5	0.0
o_6	0.0
p_1	0.0
p_2	0.0
p_3	0.0
p_4	0.0
p_5	0.0
p_6	0.0
phi_c1	31449.0
phi_c2	10770.0
phi_c3	19809.0
phi_c4	4147.0
phi_c5	25240.0
phi_c6	13460.0
phi_d0	50000.0
phi_dN	-0.0
tauD_c1	450000.0
tauD_c2	200000.0
tauD_c3	487325.0
tauD_c4	450000.0
tauD_c5	105925.0
tauD_c6	700000.0
tauD_d0	-0.0
tauD_dN	1000000.0
tauS_c1	0.0
tauS_c2	0.0
tauS_c3	0.0
tauS_c4	841500.0
tauS_c5	0.0
tauS_c6	0.0
tauS_d0	-0.0
tauS_dN	0.0
x_c1_dN	1.0
x_c2_c4	1.0
x_c3_dN	1.0
x_c4_dN	1.0
x_c5_c2	1.0
x_c6_dN	1.0
x_d0_c1	1.0
x_d0_c3	1.0
x_d0_c5	1.0
x_d0_c6	1.0
